Solver command line: ['C:\\Program Files\\IBM\\ILOG\\CPLEX_Studio2211\\cplex\\bin\\x64_win64\\cplex.exe']


Welcome to IBM(R) ILOG(R) CPLEX(R) Interactive Optimizer 22.1.1.0
  with Simplex, Mixed Integer & Barrier Optimizers
5725-A06 5725-A29 5724-Y48 5724-Y49 5724-Y54 5724-Y55 5655-Y21
Copyright IBM Corp. 1988, 2022.  All Rights Reserved.

Type 'help' for a list of available commands.
Type 'help' followed by a command name for more
information on commands.

CPLEX> Logfile 'cplex.log' closed.
Logfile 'C:\Users\wangy\Documents\GitHub\re_optimization\result_site_specific\tmp__y0eumf.cplex.log' open.
CPLEX> Problem 'C:\Users\wangy\Documents\GitHub\re_optimization\result_site_specific\tmprsbagmk3.pyomo.lp' read.
Read time = 0.23 sec. (7.28 ticks)
CPLEX> Problem name         : C:\Users\wangy\Documents\GitHub\re_optimization\result_site_specific\tmprsbagmk3.pyomo.lp
Objective sense      : Minimize
Variables            :   52617  [Nneg: 27764,  Free: 8786,  Binary: 7,
                                 Other: 16060]
Objective nonzeros   :      14
Linear constraints   :   73052  [Less: 39437,  Greater: 3,  Equal: 33612]
  Nonzeros           :  181217
  RHS nonzeros       :    3816

Variables            : Min LB: 0.000000         Max UB: 1.000000       
Objective nonzeros   : Min   : 1.000000         Max   : 1.000000       
Linear constraints   :
  Nonzeros           : Min   : 0.002584908      Max   : 100000.0       
  RHS nonzeros       : Min   : 0.04400000       Max   : 1000.000       
CPLEX> Version identifier: 22.1.1.0 | 2022-11-27 | 9160aff4d
Tried aggregator 3 times.
MIP Presolve eliminated 47634 rows and 28655 columns.
Aggregator did 7337 substitutions.
Reduced MIP has 18081 rows, 16625 columns, and 52434 nonzeros.
Reduced MIP has 5 binaries, 0 generals, 0 SOSs, and 0 indicators.
Presolve time = 0.14 sec. (152.73 ticks)
Found incumbent of value 192870.334510 after 0.19 sec. (178.13 ticks)
Probing time = 0.00 sec. (1.10 ticks)
Tried aggregator 1 time.
Detecting symmetries...
Reduced MIP has 18081 rows, 16625 columns, and 52434 nonzeros.
Reduced MIP has 5 binaries, 0 generals, 0 SOSs, and 0 indicators.
Presolve time = 0.03 sec. (31.21 ticks)
Probing time = 0.00 sec. (0.98 ticks)
MIP emphasis: balance optimality and feasibility.
MIP search method: dynamic search.
Parallel mode: deterministic, using up to 16 threads.
Root relaxation solution time = 0.94 sec. (569.51 ticks)

        Nodes                                         Cuts/
   Node  Left     Objective  IInf  Best Integer    Best Bound    ItCnt     Gap

*     0+    0                       192870.3345    -4012.5908           102.08%
*     0+    0                         5601.3890    -4012.5908           171.64%
      0     0     5201.2227     1     5601.3890     5201.2227       59    7.14%
*     0+    0                         5601.2515     5201.2227             7.14%
      0     0        cutoff           5601.2515                    484    0.00%
Elapsed time = 1.38 sec. (998.17 ticks, tree = 0.01 MB, solutions = 3)

Root node processing (before b&c):
  Real time             =    1.39 sec. (1000.68 ticks)
Parallel b&c, 16 threads:
  Real time             =    0.00 sec. (0.00 ticks)
  Sync time (average)   =    0.00 sec.
  Wait time (average)   =    0.00 sec.
                          ------------
Total (root+branch&cut) =    1.39 sec. (1000.68 ticks)

Solution pool: 3 solutions saved.

MIP - Integer optimal solution:  Objective =  5.6012515272e+03
Solution time =    1.39 sec.  Iterations = 484  Nodes = 0
Deterministic time = 1000.83 ticks  (719.50 ticks/sec)

CPLEX> Incumbent solution written to file 'C:\Users\wangy\Documents\GitHub\re_optimization\result_site_specific\tmpotbufgfk.cplex.sol'.
CPLEX> 
